p cnf 11 42
-11 -2 11 0
10 -7 -7 0
-3 7 6 0
8 -5 4 0
10 3 -2 0
11 5 11 0
3 -10 -2 0
10 10 -11 0
8 9 9 0
-5 10 10 0
-4 8 -8 0
-8 -9 2 0
-8 1 -11 0
10 3 -4 0
-4 -3 -9 0
-6 -6 7 0
4 -8 6 0
10 -5 6 0
8 9 5 0
5 2 -5 0
-7 9 -8 0
-10 2 9 0
-1 -5 -3 0
-7 10 -4 0
-9 9 5 0
-9 -9 7 0
-8 3 8 0
-3 -4 9 0
2 1 -1 0
-1 11 8 0
8 10 7 0
-5 6 -9 0
5 -4 -3 0
11 1 -1 0
2 8 -9 0
-2 -5 5 0
10 10 3 0
1 3 1 0
4 6 8 0
-3 5 -8 0
-1 -2 5 0
-5 -2 -4 0
